(set-info :origin "SVCOMP13 benchmarks generated by Arie Gurfinkel")
(set-info :status unsat)
(set-logic HORN)
(declare-fun cp-rel-bb2.i.i21.i.i () Bool)
(declare-fun cp-rel-entry () Bool)
(declare-fun cp-rel-bb1.i.i (Real Real Real Real) Bool)
(assert |cp-rel-entry|)
(assert (forall ((?A Real) (?B Real) (?C Real) (?D Real) (?E Bool) )(let (($x426833 (and |cp-rel-entry| (<= ?D 0.0) (>= ?C 0.0) (<= ?C 0.0) (>= ?B 1.0) (<= ?B 1.0) (>= ?A 0.0) (<= ?A 0.0) (= ?E true) (>= ?D 0.0))))
(=> $x426833 (|cp-rel-bb1.i.i| ?A ?B ?C ?D))))
)
(assert (forall ((?A Real) (?B Real) (?C Real) (?D Real) (?E Real) (?F Real) (?G Real) (?H Real) (?I Bool) (?J Bool) (?K Bool) (?L Bool) (?M Bool) (?N Bool) (?O Real) (?P Real) (?Q Bool) (?R Bool) (?S Bool) (?T Bool) (?U Bool) (?V Bool) (?W Real) (?X Real) (?Y Bool) (?Z Bool) (?A1 Bool) (?B1 Bool) (?C1 Bool) (?D1 Bool) (?E1 Real) (?F1 Real) (?G1 Bool) (?H1 Bool) (?I1 Bool) (?J1 Bool) (?K1 Bool) (?L1 Bool) (?M1 Real) (?N1 Real) (?O1 Bool) (?P1 Bool) (?Q1 Bool) (?R1 Bool) (?S1 Bool) (?T1 Real) (?U1 Bool) (?V1 Real) (?W1 Real) (?X1 Bool) (?Y1 Bool) (?Z1 Real) (?A2 Bool) (?B2 Bool) (?C2 Bool) (?D2 Bool) )(let (($x381136 (|cp-rel-bb1.i.i| ?E ?F ?G ?H)))
(let (($x64004 (or (not ?I) (and ?J ?K (not ?L)))))
(let (($x545028 (or (not ?I) ?K)))
(let (($x843239 (not ?M)))
(let (($x761772 (or $x843239 (and ?I ?N (<= ?O ?P) (>= ?O ?P)) (and ?J ?Q ?L (<= ?O ?B) (>= ?O ?B)))))
(let (($x344308 (or $x843239 (and ?N (not ?Q)) (and ?Q (not ?N)))))
(let (($x311861 (or (not ?R) (and ?M ?S (not ?T)))))
(let (($x131332 (or (not ?R) ?S)))
(let (($x137156 (not ?U)))
(let (($x133707 (or $x137156 (and ?R ?V (<= ?W ?X) (>= ?W ?X)) (and ?M ?Y ?T (<= ?W ?A) (>= ?W ?A)))))
(let (($x319692 (or $x137156 (and ?V (not ?Y)) (and ?Y (not ?V)))))
(let (($x337570 (or (not ?Z) (and ?U ?A1 (not ?B1)))))
(let (($x240827 (or (not ?Z) ?A1)))
(let (($x324081 (or (not ?C1) (and ?Z ?D1 (<= ?E1 ?F1) (>= ?E1 ?F1)) (and ?U ?G1 ?B1 (<= ?E1 ?O) (>= ?E1 ?O)))))
(let (($x558581 (or (not ?C1) (and ?D1 (not ?G1)) (and ?G1 (not ?D1)))))
(let (($x563478 (or (not ?H1) (and ?C1 ?I1 ?J1))))
(let (($x521417 (or (not ?H1) ?I1)))
(let (($x513751 (not ?K1)))
(let (($x278462 (or $x513751 (and ?H1 ?L1 (<= ?M1 ?N1) (>= ?M1 ?N1)) (and ?C1 ?O1 (not ?J1) (<= ?M1 ?C) (>= ?M1 ?C)))))
(let (($x782836 (or $x513751 (and ?L1 (not ?O1)) (and ?O1 (not ?L1)))))
(let (($x104326 (or (not ?P1) (and ?K1 ?Q1 (not ?R1)))))
(let (($x447505 (or (not ?P1) ?Q1)))
(let (($x230555 (and ?K1 ?R1 (<= ?E ?W) (>= ?E ?W) (<= ?F ?E1) (>= ?F ?E1) (<= ?G ?M1) (>= ?G ?M1) (<= ?H 0.0) (>= ?H 0.0))))
(let (($x69602 (and ?P1 ?S1 (<= ?E ?W) (>= ?E ?W) (<= ?F ?E1) (>= ?F ?E1) (<= ?G ?M1) (>= ?G ?M1) (<= ?H 1.0) (>= ?H 1.0))))
(let (($x589667 (= ?L (= ?T1 0.0))))
(let (($x117838 (= ?V1 (ite ?U1 1.0 0.0))))
(let (($x387570 (= ?T (= ?W1 0.0))))
(let (($x220082 (= ?X (ite ?X1 1.0 0.0))))
(let (($x618750 (= ?Y1 (not (<= ?O 0.0)))))
(let (($x403486 (= ?Z1 (+ (~ 1.0) ?O))))
(let (($x362895 (= ?F1 (ite ?Y1 ?Z1 ?O))))
(let (($x264399 (= ?A2 (not (<= ?E1 1.0)))))
(let (($x356245 (= ?J1 (and ?A2 ?B1))))
(let (($x432712 (= ?B2 (= ?W 0.0))))
(let (($x278396 (= ?C2 (= ?W 0.0))))
(let (($x89165 (= ?D2 (= ?M1 0.0))))
(let (($x404882 (= ?R1 (or ?D2 ?C2))))
(let (($x563713 (and (|cp-rel-bb1.i.i| ?A ?B ?C ?D) $x404882 $x89165 $x278396 (= ?N1 (ite ?B2 1.0 ?C)) $x432712 $x356245 $x264399 $x362895 $x403486 $x618750 (= ?B1 (= ?C 0.0)) $x220082 (= ?X1 (= ?A 0.0)) $x387570 (= ?P (+ ?V1 ?B)) $x117838 (= ?U1 (not (<= 2.0 ?B))) $x589667 (or $x69602 $x230555) $x447505 $x104326 $x782836 $x278462 $x521417 $x563478 $x558581 $x324081 $x240827 $x337570 $x319692 $x133707 $x131332 $x311861 $x344308 $x761772 $x545028 $x64004 (= ?S1 (= ?D 0.0)))))
(=> $x563713 $x381136))))))))))))))))))))))))))))))))))))))))
)
(assert (forall ((?A Real) (?B Real) (?C Real) (?D Real) (?E Bool) (?F Bool) (?G Bool) (?H Bool) (?I Bool) (?J Bool) (?K Real) (?L Real) (?M Bool) (?N Bool) (?O Bool) (?P Bool) (?Q Bool) (?R Bool) (?S Real) (?T Real) (?U Bool) (?V Bool) (?W Bool) (?X Bool) (?Y Bool) (?Z Bool) (?A1 Real) (?B1 Real) (?C1 Bool) (?D1 Bool) (?E1 Bool) (?F1 Bool) (?G1 Bool) (?H1 Bool) (?I1 Real) (?J1 Real) (?K1 Bool) (?L1 Bool) (?M1 Bool) (?N1 Bool) (?O1 Bool) (?P1 Real) (?Q1 Bool) (?R1 Real) (?S1 Real) (?T1 Bool) (?U1 Bool) (?V1 Real) (?W1 Bool) (?X1 Bool) (?Y1 Bool) (?Z1 Bool) )(let (($x64004 (or (not ?E) (and ?F ?G (not ?H)))))
(let (($x545028 (or (not ?E) ?G)))
(let (($x843239 (not ?I)))
(let (($x488779 (or $x843239 (and ?E ?J (<= ?K ?L) (>= ?K ?L)) (and ?F ?M ?H (<= ?K ?B) (>= ?K ?B)))))
(let (($x344308 (or $x843239 (and ?J (not ?M)) (and ?M (not ?J)))))
(let (($x311861 (or (not ?N) (and ?I ?O (not ?P)))))
(let (($x131332 (or (not ?N) ?O)))
(let (($x137156 (not ?Q)))
(let (($x771496 (or $x137156 (and ?N ?R (<= ?S ?T) (>= ?S ?T)) (and ?I ?U ?P (<= ?S ?A) (>= ?S ?A)))))
(let (($x319692 (or $x137156 (and ?R (not ?U)) (and ?U (not ?R)))))
(let (($x337570 (or (not ?V) (and ?Q ?W (not ?X)))))
(let (($x240827 (or (not ?V) ?W)))
(let (($x324081 (or (not ?Y) (and ?V ?Z (<= ?A1 ?B1) (>= ?A1 ?B1)) (and ?Q ?C1 ?X (<= ?A1 ?K) (>= ?A1 ?K)))))
(let (($x558581 (or (not ?Y) (and ?Z (not ?C1)) (and ?C1 (not ?Z)))))
(let (($x563478 (or (not ?D1) (and ?Y ?E1 ?F1))))
(let (($x521417 (or (not ?D1) ?E1)))
(let (($x513751 (not ?G1)))
(let (($x927574 (or $x513751 (and ?D1 ?H1 (<= ?I1 ?J1) (>= ?I1 ?J1)) (and ?Y ?K1 (not ?F1) (<= ?I1 ?C) (>= ?I1 ?C)))))
(let (($x782836 (or $x513751 (and ?H1 (not ?K1)) (and ?K1 (not ?H1)))))
(let (($x104326 (or (not ?L1) (and ?G1 ?M1 (not ?N1)))))
(let (($x447505 (or (not ?L1) ?M1)))
(let (($x589667 (= ?H (= ?P1 0.0))))
(let (($x117838 (= ?R1 (ite ?Q1 1.0 0.0))))
(let (($x387570 (= ?P (= ?S1 0.0))))
(let (($x220082 (= ?T (ite ?T1 1.0 0.0))))
(let (($x618750 (= ?U1 (not (<= ?K 0.0)))))
(let (($x403486 (= ?V1 (+ (~ 1.0) ?K))))
(let (($x362895 (= ?B1 (ite ?U1 ?V1 ?K))))
(let (($x264399 (= ?W1 (not (<= ?A1 1.0)))))
(let (($x356245 (= ?F1 (and ?W1 ?X))))
(let (($x432712 (= ?X1 (= ?S 0.0))))
(let (($x278396 (= ?Y1 (= ?S 0.0))))
(let (($x89165 (= ?Z1 (= ?I1 0.0))))
(let (($x404882 (= ?N1 (or ?Z1 ?Y1))))
(let (($x381136 (|cp-rel-bb1.i.i| ?A ?B ?C ?D)))
(let (($x876234 (and $x381136 $x404882 $x89165 $x278396 (= ?J1 (ite ?X1 1.0 ?C)) $x432712 $x356245 $x264399 $x362895 $x403486 $x618750 (= ?X (= ?C 0.0)) $x220082 (= ?T1 (= ?A 0.0)) $x387570 (= ?L (+ ?R1 ?B)) $x117838 (= ?Q1 (not (<= 2.0 ?B))) $x589667 (not (= ?O1 true)) (= ?L1 true) $x447505 $x104326 $x782836 $x927574 $x521417 $x563478 $x558581 $x324081 $x240827 $x337570 $x319692 $x771496 $x131332 $x311861 $x344308 $x488779 $x545028 $x64004 (= ?O1 (= ?D 0.0)))))
(=> $x876234 |cp-rel-bb2.i.i21.i.i|))))))))))))))))))))))))))))))))))))))
)
(assert (not cp-rel-bb2.i.i21.i.i))
(check-sat)
